p cnf 141 482
1 -2 -3 0
-1 2 -3 0
1 2 3 0
-1 -2 3 0
-6 4 0
-6 -5 0
-4 5 6 0
-8 7 -9 0
8 -7 -9 0
-8 -7 9 0
8 7 9 0
-10 7 0
-10 9 0
-7 -9 10 0
-11 6 0
-11 10 0
-6 -10 11 0
12 2 0
12 3 0
-2 -3 -12 0
14 12 0
14 -13 0
-12 13 -14 0
11 14 -15 0
-11 -14 -15 0
11 -14 15 0
-11 14 15 0
16 3 0
16 15 0
-3 -15 -16 0
19 -17 0
19 18 0
17 -18 -19 0
-20 -19 0
-20 13 0
19 -13 20 0
16 20 -21 0
-16 -20 -21 0
16 -20 21 0
-16 20 21 0
-23 -21 0
-23 -22 0
21 22 23 0
-25 -3 0
-25 24 0
3 -24 25 0
-26 -1 0
-26 -25 0
1 25 26 0
26 27 -28 0
-26 -27 -28 0
26 -27 28 0
-26 27 28 0
29 -28 0
29 -13 0
28 13 -29 0
-27 7 -30 0
27 -7 -30 0
-27 -7 30 0
27 7 30 0
-17 31 -32 0
17 -31 -32 0
-17 -31 32 0
17 31 32 0
-33 -30 0
-33 -32 0
30 32 33 0
34 29 0
34 -33 0
-29 33 -34 0
9 -17 -35 0
-9 17 -35 0
9 17 35 0
-9 -17 35 0
30 35 -36 0
-30 -35 -36 0
30 -35 36 0
-30 35 36 0
37 6 0
37 -36 0
-6 36 -37 0
-2 -37 -38 0
2 37 -38 0
-2 37 38 0
2 -37 38 0
14 17 -39 0
-14 -17 -39 0
14 -17 39 0
-14 17 39 0
-39 30 -40 0
39 -30 -40 0
-39 -30 40 0
39 30 40 0
38 -40 -41 0
-38 40 -41 0
38 40 41 0
-38 -40 41 0
-42 34 0
-42 -41 0
-34 41 42 0
-43 -23 0
-43 -42 0
23 42 43 0
1 35 -44 0
-1 -35 -44 0
1 -35 44 0
-1 35 44 0
-45 -10 0
-45 44 0
10 -44 45 0
-46 -5 0
-46 -45 0
5 45 46 0
-48 -2 0
-48 47 0
2 -47 48 0
-48 2 -49 0
48 -2 -49 0
-48 -2 49 0
48 2 49 0
50 27 0
50 49 0
-27 -49 -50 0
-51 -50 0
-51 -35 0
50 35 51 0
51 21 -52 0
-51 -21 -52 0
51 -21 52 0
-51 21 52 0
-53 -46 0
-53 -52 0
46 52 53 0
-54 -43 0
-54 -53 0
43 53 54 0
56 55 0
56 9 0
-55 -9 -56 0
4 56 -57 0
-4 -56 -57 0
4 -56 57 0
-4 56 57 0
58 4 0
58 -57 0
-4 57 -58 0
-59 -13 0
-59 -10 0
13 10 59 0
60 -59 0
60 -55 0
59 55 -60 0
61 58 0
61 -60 0
-58 60 -61 0
62 -17 0
62 -31 0
17 31 -62 0
63 -3 0
63 25 0
3 -25 -63 0
-64 62 0
-64 -63 0
-62 63 64 0
8 27 -65 0
-8 -27 -65 0
8 -27 65 0
-8 27 65 0
-66 -2 0
-66 -65 0
2 65 66 0
-67 -14 0
-67 -66 0
14 66 67 0
64 -67 -68 0
-64 67 -68 0
64 67 68 0
-64 -67 68 0
-61 -68 -69 0
61 68 -69 0
-61 68 69 0
61 -68 69 0
-70 54 0
-70 69 0
-54 -69 70 0
-48 -18 -71 0
48 18 -71 0
-48 18 71 0
48 -18 71 0
-72 -3 0
-72 55 0
3 -55 72 0
-71 72 -73 0
71 -72 -73 0
-71 -72 73 0
71 72 73 0
65 17 -74 0
-65 -17 -74 0
65 -17 74 0
-65 17 74 0
-74 8 -75 0
74 -8 -75 0
-74 -8 75 0
74 8 75 0
-76 -75 0
-76 59 0
75 -59 76 0
77 -76 0
77 24 0
76 -24 -77 0
78 -73 0
78 77 0
73 -77 -78 0
79 39 0
79 37 0
-39 -37 -79 0
80 -30 0
80 -79 0
30 79 -80 0
-81 -19 0
-81 -24 0
19 24 81 0
4 -35 -82 0
-4 35 -82 0
4 35 82 0
-4 -35 82 0
-82 -12 -83 0
82 12 -83 0
-82 12 83 0
82 -12 83 0
4 83 -84 0
-4 -83 -84 0
4 -83 84 0
-4 83 84 0
85 -81 0
85 -84 0
81 84 -85 0
86 -80 0
86 85 0
80 -85 -86 0
87 -65 0
87 -7 0
65 7 -87 0
-88 -25 0
-88 -17 0
25 17 88 0
-89 -88 0
-89 50 0
88 -50 89 0
90 -10 0
90 -88 0
10 88 -90 0
-8 90 -91 0
8 -90 -91 0
-8 -90 91 0
8 90 91 0
92 -65 0
92 -9 0
65 9 -92 0
-37 -92 -93 0
37 92 -93 0
-37 92 93 0
37 -92 93 0
94 91 0
94 -93 0
-91 93 -94 0
95 -63 0
95 -62 0
63 62 -95 0
95 96 0
-95 96 0
94 96 -97 0
-94 -96 -97 0
94 -96 97 0
-94 96 97 0
59 19 -98 0
-59 -19 -98 0
59 -19 98 0
-59 19 98 0
-99 -30 0
-99 82 0
30 -82 99 0
100 -98 0
100 99 0
98 -99 -100 0
-101 24 0
-101 5 0
-24 -5 101 0
-16 -101 -102 0
16 101 -102 0
-16 101 102 0
16 -101 102 0
-103 -100 0
-103 -102 0
100 102 103 0
97 103 -104 0
-97 -103 -104 0
97 -103 104 0
-97 103 104 0
-25 24 -105 0
25 -24 -105 0
-25 -24 105 0
25 24 105 0
106 -105 0
106 39 0
105 -39 -106 0
106 25 -107 0
-106 -25 -107 0
106 -25 107 0
-106 25 107 0
109 -108 0
109 -13 0
108 13 -109 0
-110 24 0
-110 109 0
-24 -109 110 0
-6 -25 -111 0
6 25 -111 0
-6 25 111 0
6 -25 111 0
112 -111 0
112 56 0
111 -56 -112 0
110 112 -113 0
-110 -112 -113 0
110 -112 113 0
-110 112 113 0
-114 107 0
-114 113 0
-107 -113 114 0
104 114 -115 0
-104 -114 -115 0
104 -114 115 0
-104 114 115 0
-79 24 -116 0
79 -24 -116 0
-79 -24 116 0
79 24 116 0
117 -25 0
117 -116 0
25 116 -117 0
-118 82 0
-118 17 0
-82 -17 118 0
-119 117 0
-119 118 0
-117 -118 119 0
120 -115 0
120 119 0
115 -119 -120 0
-121 -89 0
-121 -120 0
89 120 121 0
-122 -32 0
-122 -116 0
32 116 122 0
-123 111 0
-123 -106 0
-111 106 123 0
-122 -123 -124 0
122 123 -124 0
-122 123 124 0
122 -123 124 0
-125 31 0
-125 13 0
-31 -13 125 0
-126 75 0
-126 -125 0
-75 125 126 0
-127 -59 0
-127 -20 0
59 20 127 0
128 -126 0
128 127 0
126 -127 -128 0
129 19 0
129 9 0
-19 -9 -129 0
-130 25 0
-130 -129 0
-25 129 130 0
-131 16 0
-131 130 0
-16 -130 131 0
-132 -128 0
-132 131 0
128 -131 132 0
-124 -132 -133 0
124 132 -133 0
-124 132 133 0
124 -132 133 0
-134 -121 0
-134 133 0
121 -133 134 0
87 -134 -135 0
-87 134 -135 0
87 134 135 0
-87 -134 135 0
136 -39 0
136 -75 0
39 75 -136 0
-137 136 0
-137 47 0
-136 -47 137 0
-138 -135 0
-138 137 0
135 -137 138 0
-86 138 -139 0
86 -138 -139 0
-86 -138 139 0
86 138 139 0
78 -139 -140 0
-78 139 -140 0
78 139 140 0
-78 -139 140 0
-141 70 0
-141 -140 0
-70 140 141 0
5 -8 -116 82 -3 -26 0
122 -123 43 129 0
-68 124 0
43 9 83 0
54 28 59 0
-48 33 -43 0
36 -109 71 -63 0
-36 -96 32 135 3 0
-29 -3 104 -67 -87 140 0
-130 131 96 38 -15 0
47 33 -38 -89 0
19 -18 -61 33 -112 0
119 -11 134 0
59 -18 0
-2 115 14 -52 -85 -45 0
74 -112 53 -30 80 -105 0
-77 -73 27 0
68 133 93 114 84 138 0
126 -45 57 -50 0
23 -118 0
-5 121 22 18 -16 12 0
-103 -135 92 0
16 112 -25 -32 -74 0
-12 101 7 0
-141 68 0
-121 41 11 -51 0
-122 -19 71 -81 0
-80 100 -130 89 -59 55 0
132 -72 0
127 -86 78 81 0
-18 -91 -130 4 -23 89 0
134 -115 141 0
82 75 -12 0
7 -132 47 0
-136 -116 -69 0
47 -84 -20 130 0
-72 -15 0
-119 -120 -141 -68 0
131 -42 0
-79 50 0
-23 134 81 99 -84 -95 0
-99 40 47 39 0
-14 90 -61 0
-114 -104 93 121 0
-113 128 -26 -52 -13 0
-117 44 -115 -89 0
9 -77 82 0
-137 -96 0
-121 92 -17 0
-58 -123 -137 102 -7 117 0
-76 -129 126 0
125 101 -26 115 0
-106 111 -10 90 0
-12 -6 21 132 128 85 0
-91 -85 -15 -124 -6 -21 0
130 -5 42 -137 -69 106 0
98 -134 -63 0
-66 44 88 -62 0
76 -20 34 -93 30 123 0
-40 106 -127 -85 -76 0
-56 -11 -82 12 40 -122 0
-66 89 -4 0
106 29 91 -6 0
141 0
